(declare-const X String)
; couponbar\.coupons\.com\dOwner\x3A\s+Host\x3A
(assert (not (str.in_re X (re.++ (str.to_re "couponbar.coupons.com") (re.range "0" "9") (str.to_re "Owner:") (re.+ (re.union (str.to_re " ") (str.to_re "\u{9}") (str.to_re "\u{a}") (str.to_re "\u{c}") (str.to_re "\u{d}"))) (str.to_re "Host:\u{a}")))))
; ^[1-9]+[0-9]*$
(assert (str.in_re X (re.++ (re.+ (re.range "1" "9")) (re.* (re.range "0" "9")) (str.to_re "\u{a}"))))
; searchnugget\s+User-Agent\x3A\s+Downloadfowclxccdxn\x2fuxwn\.ddy
(assert (str.in_re X (re.++ (str.to_re "searchnugget\u{13}") (re.+ (re.union (str.to_re " ") (str.to_re "\u{9}") (str.to_re "\u{a}") (str.to_re "\u{c}") (str.to_re "\u{d}"))) (str.to_re "User-Agent:") (re.+ (re.union (str.to_re " ") (str.to_re "\u{9}") (str.to_re "\u{a}") (str.to_re "\u{c}") (str.to_re "\u{d}"))) (str.to_re "Downloadfowclxccdxn/uxwn.ddy\u{a}"))))
(check-sat)
